; benchmark generated from python API
(set-info :status unknown)
(declare-datatypes ((IntState 0)) (((Mk1 (val1 Int)) (Mk2 (val2 Int)))))
 (declare-fun c_main_~j~6 () Int)
(declare-fun c_main_~k~6 () Int)
(declare-fun c_main_~i~6 () Int)
(assert
 (let (($x130 (exists ((v_nnf_78_st IntState) (val!90 Int) )(let ((?x56 (val2 v_nnf_78_st)))
 (let (($x139 (<= ?x56 4)))
 (let (($x37 (and (<= (+ ?x56 2) c_main_~k~6) (<= c_main_~j~6 (+ (* 2 ?x56) 1)) $x139)))
 (let (($x52 (not (= v_nnf_78_st (Mk1 val!90)))))
 (and $x52 $x37))))))
 ))
 (let (($x100 (<= c_main_~i~6 3)))
 (let (($x115 (<= c_main_~i~6 4)))
 (let (($x85 (exists ((v_nnf_82 Int) )(let (($x144 (<= v_nnf_82 4)))
 (let (($x131 (<= c_main_~j~6 (+ (* 2 v_nnf_82) 1))))
 (and (<= (+ v_nnf_82 4) c_main_~k~6) $x131 $x144))))
 ))
 (and (and $x100 $x85 $x115) (not (and $x100 $x130))))))))
(check-sat)
